data;

param V := 76;

set ARCS :=
#1
(1,6) (6,7) (7,8) (8,9) (9,10) (10,13) (13,14)
(6,1) (7,6) (8,7) (9,8) (10,9) (13,10) (14,13)
#2
(2,11) (11,15) (15,20) (20,26)
(11,2) (15,11) (20,15) (26,20)
#3
(3,12) (12,16) (16,21) (21,27)
(12,3) (16,12) (21,16) (27,21)
#4
(28,45) (45,22) (22,48) (48,50)
(45,28) (22,45) (48,22) (50,48)
#5
(29,46) (46,23) (23,49) (49,51)
(46,29) (23,46) (49,23) (51,49)
#6
(30,34) (34,35) (35,40) (40,41) (41,47)
(34,30) (35,34) (40,35) (41,40) (47,41)
#A
(52,55) (55,64) (64,17) (17,24)
(55,52) (64,55) (17,64) (24,17)
#C
(53,56) (56,62) (62,65) (65,18) (18,25)
(56,53) (62,56) (65,62) (18,65) (25,18)
#E
(54,57) (57,63) (63,66) (66,19)
(57,54) (63,57) (66,63) (19,66)
#B
(58,36) (36,68)
(36,58) (68,36)
#D
(59,37) (37,69)
(37,59) (69,37)
#F
(4,60) (60,38) (38,67) (67,70) (70,72)
(60,4) (38,60) (67,38) (70,67) (72,70)
#M
(5,61) (61,39) (39,71)
(61,5) (39,61) (71,39)
#N
(31,73) (73,75) (75,42)
(73,31) (75,73) (42,75)
#Q
(32,43)
(43,32)
#R
(33,74) (74,76) (76,44)
(74,33) (76,74) (44,76)

#Transition at 14 St
(1,2) (1,3) (1,4) (1,5)
(2,1) (2,3) (2,4) (2,5)
(3,1) (3,2) (3,4) (3,5)
(4,1) (4,2) (4,3) (4,5)
(5,1) (5,2) (5,3) (5,4)
#Transition at Chambers St
(10,11) (10,12)
(11,10) (11,12)
(12,10) (12,11)
#Transition at Park Pl
(15,16) (15,17) (15,18) (15,19)
(16,15) (16,17) (16,18) (16,19)
(17,15) (17,16) (17,18) (17,19)
(18,15) (18,16) (18,17) (18,19)
(19,15) (19,16) (19,17) (19,18)
#Transition at Fulton St
(20,21) (20,22) (20,23) (20,24) (20,25)
(21,20) (21,22) (21,23) (21,24) (21,25)
(22,20) (22,21) (22,23) (22,24) (22,25)
(23,20) (23,21) (23,22) (23,24) (23,25)
(24,20) (24,21) (24,22) (24,23) (24,25)
(25,20) (25,21) (25,22) (25,23) (25,24)
#Transition at Wall St
(26,27)
(27,26)
#Transition at 14 St / Union Sq
(28,29) (28,30) (28,31) (28,32) (28,33)
(29,28) (29,30) (29,31) (29,32) (29,33)
(30,28) (30,29) (30,31) (30,32) (30,33)
(31,28) (31,29) (31,30) (31,32) (31,33)
(32,28) (32,29) (32,30) (32,31) (32,33)
(33,28) (33,29) (33,30) (33,31) (33,32)
#Transition at Bleecker St
(35,36) (35,37) (35,38) (35,39)
(36,35) (36,37) (36,38) (36,39)
(37,35) (37,36) (37,38) (37,39)
(38,35) (38,36) (38,37) (38,39)
(39,35) (39,36) (39,37) (39,38)
#Transition at Canal St
(41,42) (41,43) (41,44)
(42,41) (42,43) (42,44)
(43,41) (43,42) (43,44)
(44,41) (44,42) (44,43)
#Transition at Bklyn Br / City Hall
(45,46) (45,47)
(46,45) (46,47)
(47,45) (47,46)
#Transition at Wall St
(48,49)
(49,48)
#Transition at Bowling Green
(50,51)
(51,50)
#Transition at 14 St
(52,53) (52,54)
(53,52) (53,54)
(54,52) (54,53)
#Transition at W 4 St / Wash Sq
(55,56) (55,57) (55,58) (55,59) (55,60) (55,61)
(56,55) (56,57) (56,58) (56,59) (56,60) (56,61)
(57,55) (57,56) (57,58) (57,59) (57,60) (57,61)
(58,55) (58,56) (58,57) (58,59) (58,60) (58,61)
(59,55) (59,56) (59,57) (59,58) (59,60) (59,61)
(60,55) (60,56) (60,57) (60,58) (60,59) (60,61)
(61,55) (61,56) (61,57) (61,58) (61,59) (61,60)
#Transition at Spring St
(62,63)
(63,62)
#Transition at Canal St
(64,65) (64,66)
(65,64) (65,66)
(66,64) (66,65)
#Transition at Grand St
(68,69)
(69,68)
#Transition at Delancey St / Essex St
(70,71)
(71,70)
#Transition at 8 St / NYU
(73,74)
(74,73)
#Transition at Prince St
(75,76)
(76,75)
;

param: 	Xi	:=
#1
1	6	2
6	7	1
7	8	2
8	9	1
9	10	1
10	13	3
13	14	3
6	1	2
7	6	1
8	7	2
9	8	1
10	9	1
13	10	3
14	13	3
#2
2	11	5
11	15	1
15	20	2
20	26	1
11	2	5
15	11	1
20	15	2
26	20	1
#3
3	12	5
12	16	1
16	21	2
21	27	1
12	3	5
16	12	1
21	16	2
27	21	1
#4
28	45	5
45	22	1
22	48	2
48	50	1
45	28	5
22	45	1
48	22	2
50	48	1
#5
29	46	5
46	23	1
23	49	2
49	51	1
46	29	5
23	46	1
49	23	2
51	49	1
#6
30	34	2
34	35	2
35	40	1
40	41	1
41	47	2
34	30	2
35	34	2
40	35	1
41	40	1
47	41	2
#A
52	55	2
55	64	3
64	17	1
17	24	2
55	52	2
64	55	3
17	64	1
24	17	2
#C
53	56	2
56	62	2
62	65	2
65	18	1
18	25	2
56	53	2
62	56	2
65	62	2
18	65	1
25	18	2
#E
54	57	2
57	63	2
63	66	2
66	19	2
57	54	2
63	57	2
66	63	2
19	66	2
#B
58	36	3
36	68	2
36	58	3
68	36	2
#D
59	37	3
37	69	2
37	59	3
69	37	2
#F
4	60	1
60	38	3
38	67	2
67	70	1
70	72	1
60	4	1
38	60	3
67	38	2
70	67	1
72	70	1
#M
5	61	1
61	39	3
39	71	3
61	5	1
39	61	3
71	39	3
#N
31	73	2
73	75	2
75	42	2
73	31	2
75	73	2
42	75	2
#Q
32	43	5
43	32	5
#R
33	74	2
74	76	2
76	44	2
74	33	2
76	74	2
44	76	2

#Transition at 14 St
1	2	5
1	3	5
1	4	5
1	5	5
2	1	5
2	3	5
2	4	5
2	5	5
3	1	5
3	2	5
3	4	5
3	5	5
4	1	5
4	2	5
4	3	5
4	5	5
5	1	5
5	2	5
5	3	5
5	4	5
#Transition at Chambers St
10	11	5
10	12	5
11	10	5
11	12	5
12	10	5
12	11	5
#Transition at Park Pl
15	16	5
15	17	5
15	18	5
15	19	5
16	15	5
16	17	5
16	18	5
16	19	5
17	15	5
17	16	5
17	18	5
17	19	5
18	15	5
18	16	5
18	17	5
18	19	5
19	15	5
19	16	5
19	17	5
19	18	5
#Transition at Fulton St
20	21	5
20	22	5
20	23	5
20	24	5
20	25	5
21	20	5
21	22	5
21	23	5
21	24	5
21	25	5
22	20	5
22	21	5
22	23	5
22	24	5
22	25	5
23	20	5
23	21	5
23	22	5
23	24	5
23	25	5
24	20	5
24	21	5
24	22	5
24	23	5
24	25	5
25	20	5
25	21	5
25	22	5
25	23	5
25	24	5
#Transition at Wall St
26	27	5
27	26	5
#Transition at 14 St / Union Sq
28	29	5
28	30	5
28	31	5
28	32	5
28	33	5
29	28	5
29	30	5
29	31	5
29	32	5
29	33	5
30	28	5
30	29	5
30	31	5
30	32	5
30	33	5
31	28	5
31	29	5
31	30	5
31	32	5
31	33	5
32	28	5
32	29	5
32	30	5
32	31	5
32	33	5
33	28	5
33	29	5
33	30	5
33	31	5
33	32	5
#Transition at Bleecker St
35	36	5
35	37	5
35	38	5
35	39	5
36	35	5
36	37	5
36	38	5
36	39	5
37	35	5
37	36	5
37	38	5
37	39	5
38	35	5
38	36	5
38	37	5
38	39	5
39	35	5
39	36	5
39	37	5
39	38	5
#Transition at Canal St
41	42	5
41	43	5
41	44	5
42	41	5
42	43	5
42	44	5
43	41	5
43	42	5
43	44	5
44	41	5
44	42	5
44	43	5
#Transition at Bklyn Br / City Hall
45	46	5
45	47	5
46	45	5
46	47	5
47	45	5
47	46	5
#Transition at Wall St
48	49	5
49	48	5
#Transition at Bowling Green
50	51	5
51	50	5
#Transition at 14 St
52	53	5
52	54	5
53	52	5
53	54	5
54	52	5
54	53	5
#Transition at W 4 St / Wash Sq
55	56	5
55	57	5
55	58	5
55	59	5
55	60	5
55	61	5
56	55	5
56	57	5
56	58	5
56	59	5
56	60	5
56	61	5
57	55	5
57	56	5
57	58	5
57	59	5
57	60	5
57	61	5
58	55	5
58	56	5
58	57	5
58	59	5
58	60	5
58	61	5
59	55	5
59	56	5
59	57	5
59	58	5
59	60	5
59	61	5
60	55	5
60	56	5
60	57	5
60	58	5
60	59	5
60	61	5
61	55	5
61	56	5
61	57	5
61	58	5
61	59	5
61	60	5
#Transition at Spring St
62	63	5
63	62	5
#Transition at Canal St
64	65	5
64	66	5
65	64	5
65	66	5
66	64	5
66	65	5
#Transition at Grand St
68	69	5
69	68	5
#Transition at Delancey St / Essex St
70	71	5
71	70	5
#Transition at 8 St / NYU
73	74	5
74	73	5
#Transition at Prince St
75	76	5
76	75	5
;

param s = 54;
param t = 26;

end;